
  12    4
  10   10   10   10

   0   0   0   0   0   2 2 4 
  10  10  10  10  10   2 6 3 
   5  10  10  10  10   1 5 
   3  10  10  10  10   1 5 
  10  10  10  10  10   4 11 10 9 7 
   1  10  10  10  10   4 11 10 9 7 
   4  10  10  10  10   1 8 
   6  10  10  10  10   1 12
   5  10  10  10  10   1 12
   2  10  10  10  10   1 12
  10  10  10  10  10   1 12
   0   0   0   0   0   0 
